8906
1 1 1 1 0 1 1 1 0 1
3 6 3 0 2 9 5 5 3 7 7 3 6 9 6 9 9 5 5 3 6 0 0 0 0 6 7 3 3 7 7 7 3 3 3 5 1 9 0 6 0 9 9 9 5 5 5 5 5 3 3 5 6 0 0 0 6 6 1 2 9 7 7 7 3 3 0 3 7 7 3 6 6 0 0 3 3 3 3 3 3 5 2 2 2 2 1 7 2 7 9 1 2 2 1 2 1 1 1 9
